c SAT problem
p wcnf 592 1586
1 60 -61 0
1 -75 3150 0
1 -75 3165 0
1 -90 -3090 0
1 -90 -3165 0
1 105 106 0
1 105 -3150 0
1 3120 -196 0
1 -3120 165 0
1 3120 150 0
1 -3135 -75 0
1 3135 -3120 0
1 -3135 -150 0
1 3135 120 0
1 3135 -60 0
1 3150 196 0
1 -3150 136 0
1 -3165 -75 0
1 3165 3150 0
1 3165 -181 0
1 3165 151 0
1 -3165 121 0
1 3165 90 0
1 -120 -3075 0
1 120 135 0
1 -135 3105 0
1 -135 3090 0
1 -135 3135 0
1 -150 165 0
1 150 3135 0
1 -165 3060 0
1 165 -3030 0
1 -165 -3000 0
1 3060 -3075 0
1 3060 105 0
1 -3060 -3061 0
1 3060 -255 0
1 -3075 165 0
1 -3075 -135 0
1 -3075 240 0
1 3090 3105 0
1 3090 -211 0
1 -3090 -150 0
1 3090 -255 0
1 -3105 -165 0
1 -3105 211 0
1 3105 90 0
1 -3105 -255 0
1 -195 -3060 0
1 -210 225 0
1 210 3075 0
1 3000 -315 0
1 -3015 165 0
1 -3015 3016 0
1 3015 -300 0
1 3015 -180 0
1 -3030 270 0
1 -3045 165 0
1 3045 240 0
1 -3045 285 0
1 -3045 255 0
1 -76 3300 0
1 76 -77 0
1 76 -3315 0
1 -76 -61 0
1 106 3240 0
1 106 -107 0
1 106 3285 0
1 3300 -106 0
1 3315 197 0
1 -3315 3316 0
1 3315 -91 0
1 -3330 -197 0
1 3330 -76 0
1 -3330 -61 0
1 -3345 -197 0
1 -3345 122 0
1 -121 136 0
1 -121 -3150 0
1 -121 3315 0
1 136 -3255 0
1 -151 3150 0
1 -166 3240 0
1 -166 -3315 0
1 -166 -3285 0
1 3240 -3255 0
1 -3240 151 0
1 -3255 136 0
1 -3255 151 0
1 -3270 -197 0
1 3285 -256 0
1 181 -3240 0
1 181 -3210 0
1 -181 -180 0
1 -181 182 0
1 181 3135 0
1 -196 195 0
1 196 -181 0
1 -196 3255 0
1 196 -3195 0
1 196 -3135 0
1 -211 -3225 0
1 211 3166 0
1 226 -3166 0
1 -3180 -3195 0
1 -3195 3180 0
1 -3195 -255 0
1 -3225 -166 0
1 -3225 -301 0
1 -240 -3180 0
1 255 -3151 0
1 255 3090 0
1 -255 -3166 0
1 -270 3136 0
1 -270 -3076 0
1 -270 3180 0
1 -285 -3180 0
1 285 -270 0
1 285 3195 0
1 3121 240 0
1 -3121 -376 0
1 3136 315 0
1 -3136 255 0
1 3151 331 0
1 -3151 270 0
1 -3151 240 0
1 -3151 -316 0
1 3166 -226 0
1 -3166 -316 0
1 -3166 -285 0
1 -3166 -3167 0
1 -315 -3045 0
1 -330 -3136 0
1 330 345 0
1 330 -3016 0
1 -345 3016 0
1 345 -330 0
1 345 -346 0
1 3061 420 0
1 -3061 -435 0
1 -3061 -285 0
1 3076 3075 0
1 -3076 420 0
1 3076 390 0
1 3076 -435 0
1 3076 -405 0
1 3091 -300 0
1 3091 270 0
1 3091 -435 0
1 -3091 -406 0
1 3091 315 0
1 -3091 -285 0
1 3106 -391 0
1 3106 345 0
1 3106 315 0
1 3106 -285 0
1 360 375 0
1 375 -3031 0
1 -375 3001 0
1 390 391 0
1 -3001 480 0
1 -3001 3016 0
1 3001 495 0
1 3016 -480 0
1 -3016 -405 0
1 3016 3001 0
1 3031 -480 0
1 -3031 -420 0
1 3031 3046 0
1 -3031 -465 0
1 -3031 -405 0
1 -3031 375 0
1 -3046 450 0
1 3046 -390 0
1 3046 345 0
1 -62 -3525 0
1 -62 -63 0
1 -77 -76 0
1 77 -3480 0
1 -92 -107 0
1 92 3435 0
1 -92 -3450 0
1 92 -3420 0
1 92 -93 0
1 -107 3435 0
1 -107 -108 0
1 3480 92 0
1 -3495 77 0
1 3495 -183 0
1 -3495 -122 0
1 -3510 -138 0
1 3510 62 0
1 -3525 -77 0
1 -137 -3435 0
1 137 -122 0
1 137 -3420 0
1 152 -3435 0
1 152 3420 0
1 152 -3390 0
1 167 166 0
1 3420 167 0
1 -3420 182 0
1 3420 92 0
1 -3420 3421 0
1 3435 137 0
1 3435 -107 0
1 -3435 3436 0
1 3450 -137 0
1 3450 -213 0
1 -3465 -122 0
1 -182 3375 0
1 -182 -183 0
1 182 3390 0
1 197 -3375 0
1 197 182 0
1 -212 3270 0
1 212 3435 0
1 -212 -213 0
1 -227 228 0
1 227 3270 0
1 -227 3435 0
1 -227 -3285 0
1 227 -3316 0
1 3375 256 0
1 3375 -197 0
1 3375 302 0
1 3375 241 0
1 -3375 152 0
1 -3375 317 0
1 -3390 -257 0
1 -3390 -302 0
1 -3390 -317 0
1 -3405 197 0
1 -3405 272 0
1 3405 -212 0
1 256 -3301 0
1 -256 -3270 0
1 -256 -3375 0
1 -256 3285 0
1 -271 -3301 0
1 271 3346 0
1 271 3316 0
1 286 -3331 0
1 -286 3241 0
1 -286 -3210 0
1 -286 -3286 0
1 -286 287 0
1 -3301 -301 0
1 -3301 377 0
1 -3316 -227 0
1 -3316 -271 0
1 3316 3317 0
1 -3316 -286 0
1 -3331 227 0
1 3331 3346 0
1 3331 347 0
1 -3346 -241 0
1 301 3241 0
1 -301 3180 0
1 -301 -3256 0
1 -301 316 0
1 -301 -3166 0
1 -316 3195 0
1 -316 3180 0
1 316 3316 0
1 -316 -315 0
1 316 317 0
1 -331 3301 0
1 331 -3286 0
1 331 3256 0
1 -346 3301 0
1 346 3271 0
1 -346 3241 0
1 -346 3196 0
1 -3241 406 0
1 3241 -346 0
1 3271 -301 0
1 -3271 286 0
1 -3286 -436 0
1 3286 -3285 0
1 3286 -346 0
1 3286 286 0
1 361 -3136 0
1 -361 -3181 0
1 376 361 0
1 376 3151 0
1 -376 -375 0
1 -376 3256 0
1 376 377 0
1 -376 -3166 0
1 -391 -392 0
1 -391 3152 0
1 391 -406 0
1 -406 -3106 0
1 406 -407 0
1 406 -3256 0
1 -3181 -420 0
1 3196 -496 0
1 -3211 -481 0
1 -3211 -3226 0
1 -3211 376 0
1 -3226 -361 0
1 -3226 496 0
1 -3226 436 0
1 -3226 -3225 0
1 420 3076 0
1 -420 3061 0
1 435 3122 0
1 435 -3091 0
1 -450 3046 0
1 -450 -3181 0
1 -450 -3062 0
1 -450 3196 0
1 -465 -3137 0
1 465 -3077 0
1 -465 -3196 0
1 465 -3167 0
1 3122 556 0
1 -3122 -541 0
1 3152 -420 0
1 -3152 -391 0
1 -3152 -556 0
1 3152 -496 0
1 -3167 481 0
1 3167 -420 0
1 -3167 556 0
1 480 3137 0
1 -480 3092 0
1 -495 480 0
1 495 3137 0
1 -495 -3016 0
1 -510 -3122 0
1 -525 -3122 0
1 525 510 0
1 -3077 3078 0
1 -3077 -465 0
1 3077 -600 0
1 -3092 -480 0
1 3092 -3107 0
1 3092 495 0
1 3092 465 0
1 -3092 3091 0
1 -3092 -600 0
1 3107 -480 0
1 3107 -3108 0
1 3107 586 0
1 3107 -3092 0
1 3107 -571 0
1 -540 -3062 0
1 540 -3002 0
1 555 -540 0
1 570 585 0
1 585 3002 0
1 585 -586 0
1 3017 -3016 0
1 3017 -3018 0
1 3017 525 0
1 3032 -675 0
1 -3032 -615 0
1 3032 -660 0
1 3032 -630 0
1 -3032 3033 0
1 3032 -540 0
1 3047 -525 0
1 3047 660 0
1 3047 540 0
1 -78 3705 0
1 -93 3660 0
1 -93 -94 0
1 108 3645 0
1 -108 -3600 0
1 -108 -93 0
1 -3660 -123 0
1 -3675 138 0
1 -3675 184 0
1 3690 -108 0
1 -3690 -184 0
1 3690 3705 0
1 3705 108 0
1 3705 93 0
1 123 -3675 0
1 123 124 0
1 -138 137 0
1 -138 3510 0
1 138 3675 0
1 153 168 0
1 -153 -3675 0
1 -153 -3645 0
1 168 3555 0
1 -168 153 0
1 -3600 153 0
1 -3600 -123 0
1 -3600 93 0
1 -3615 -258 0
1 3615 -198 0
1 3615 -243 0
1 3630 108 0
1 183 3585 0
1 -183 -3525 0
1 183 3510 0
1 -183 3450 0
1 198 -3510 0
1 -198 -3450 0
1 213 3585 0
1 -213 -3496 0
1 -213 3465 0
1 213 -3570 0
1 -213 -3540 0
1 -228 -3450 0
1 3540 228 0
1 3540 -168 0
1 -3540 -303 0
1 3540 -213 0
1 -3555 -3556 0
1 -3555 198 0
1 -3555 183 0
1 3570 -3585 0
1 -3570 228 0
1 -3570 168 0
1 3570 -273 0
1 -3585 -303 0
1 -3585 -213 0
1 -3585 -153 0
1 -242 3481 0
1 -242 3450 0
1 242 3420 0
1 257 3526 0
1 -257 -3465 0
1 -257 242 0
1 257 3540 0
1 -272 -3526 0
1 272 271 0
1 272 273 0
1 -272 -3421 0
1 287 -3555 0
1 287 3405 0
1 287 -272 0
1 -287 -3511 0
1 -287 -3390 0
1 287 -286 0
1 -3481 -302 0
1 -3481 -242 0
1 3481 -213 0
1 -3496 -257 0
1 -3496 228 0
1 3496 302 0
1 -3496 242 0
1 3496 3481 0
1 -3511 257 0
1 -3511 287 0
1 -3526 3511 0
1 3526 -378 0
1 -3526 318 0
1 -302 -3496 0
1 302 3451 0
1 317 3466 0
1 317 -3436 0
1 -317 -3405 0
1 -317 3346 0
1 -317 3451 0
1 317 316 0
1 347 3331 0
1 347 -3451 0
1 -347 348 0
1 -3421 422 0
1 -3421 -392 0
1 3421 -377 0
1 -3421 347 0
1 -3436 -272 0
1 -3436 437 0
1 3436 317 0
1 3436 -287 0
1 3451 422 0
1 3451 -317 0
1 3466 -332 0
1 -362 -3271 0
1 362 361 0
1 -362 3436 0
1 362 3406 0
1 362 -3346 0
1 -362 -3391 0
1 377 -3406 0
1 -392 -3317 0
1 407 -3361 0
1 407 -3271 0
1 -407 392 0
1 -407 -3347 0
1 3361 -451 0
1 3361 -436 0
1 3376 3361 0
1 -3376 -451 0
1 3376 332 0
1 -3376 -377 0
1 3391 3406 0
1 -3391 437 0
1 -3406 392 0
1 3406 3405 0
1 3406 497 0
1 -3406 -377 0
1 -421 -422 0
1 -421 3241 0
1 -421 -3347 0
1 436 -421 0
1 -436 3302 0
1 -436 -3241 0
1 436 437 0
1 451 -3302 0
1 451 3347 0
1 451 3317 0
1 -466 -467 0
1 466 -3226 0
1 3317 451 0
1 -3317 421 0
1 3317 557 0
1 3317 466 0
1 -3317 436 0
1 3332 482 0
1 -3347 -512 0
1 3347 482 0
1 3347 -466 0
1 -3347 -436 0
1 -481 -482 0
1 481 3272 0
1 481 3181 0
1 -481 -496 0
1 -481 -3167 0
1 -496 481 0
1 -496 -3272 0
1 -511 3302 0
1 -511 3272 0
1 -511 3242 0
1 -511 -3182 0
1 511 -3152 0
1 -511 3257 0
1 -526 -3302 0
1 526 -3182 0
1 -526 3317 0
1 -3242 451 0
1 -3242 -556 0
1 3242 601 0
1 -3257 -481 0
1 3257 451 0
1 3257 601 0
1 3257 541 0
1 3257 511 0
1 -3287 481 0
1 -3287 -616 0
1 -3287 3272 0
1 -3287 -3286 0
1 3287 -3288 0
1 541 3197 0
1 -556 3137 0
1 556 -555 0
1 -556 3212 0
1 556 3167 0
1 -571 3227 0
1 586 3138 0
1 -586 585 0
1 586 587 0
1 -586 -3182 0
1 586 -3153 0
1 -586 3123 0
1 -586 -3257 0
1 -3182 -676 0
1 -3182 645 0
1 -3182 -3197 0
1 3197 645 0
1 -3212 3227 0
1 3212 -601 0
1 3212 571 0
1 -3212 -511 0
1 3227 -661 0
1 3227 -571 0
1 3227 -3228 0
1 3227 511 0
1 600 3107 0
1 -615 -3138 0
1 615 -3182 0
1 -615 -3092 0
1 -615 -3062 0
1 630 -645 0
1 630 3047 0
1 630 3182 0
1 -645 3138 0
1 645 -3123 0
1 645 -3197 0
1 -3123 600 0
1 3138 -660 0
1 3138 -600 0
1 -3153 706 0
1 3153 676 0
1 -3153 3152 0
1 -3153 571 0
1 3168 691 0
1 3168 571 0
1 660 -3138 0
1 675 -3032 0
1 -690 705 0
1 690 3018 0
1 -690 -3093 0
1 690 3003 0
1 705 -3078 0
1 705 -3048 0
1 705 3063 0
1 -705 -3033 0
1 -3063 -780 0
1 -3063 720 0
1 3078 675 0
1 3078 750 0
1 3093 736 0
1 -3093 705 0
1 -3093 3092 0
1 3108 -675 0
1 3108 -645 0
1 3108 3109 0
1 3108 766 0
1 720 -3063 0
1 -750 3018 0
1 750 -751 0
1 750 -3063 0
1 765 -766 0
1 3003 690 0
1 3018 705 0
1 3018 -3019 0
1 -3018 750 0
1 -3018 690 0
1 -3033 -810 0
1 -3033 795 0
1 -3033 -735 0
1 -3048 690 0
1 -3048 3033 0
1 64 3840 0
1 64 3885 0
1 79 -64 0
1 94 -3840 0
1 94 -109 0
1 -94 -3855 0
1 94 3795 0
1 94 -93 0
1 -109 3780 0
1 -109 -3825 0
1 3855 -169 0
1 3855 139 0
1 3870 109 0
1 -3870 94 0
1 -124 -123 0
1 154 3780 0
1 154 3765 0
1 -169 168 0
1 169 3690 0
1 -169 -3705 0
1 3780 229 0
1 -3780 -139 0
1 -3780 -184 0
1 -3795 259 0
1 3795 -3796 0
1 -3795 154 0
1 3795 -94 0
1 -3810 -259 0
1 -3810 -109 0
1 -3810 -124 0
1 3825 3810 0
1 -3825 244 0
1 3825 -94 0
1 184 -199 0
1 184 -3735 0
1 199 198 0
1 -199 3795 0
1 199 3765 0
1 -199 3705 0
1 -214 -3661 0
1 -214 213 0
1 214 -3676 0
1 -229 -3750 0
1 229 3676 0
1 -3720 288 0
1 3720 -258 0
1 -3720 229 0
1 -3735 -3736 0
1 -3735 -243 0
1 3735 184 0
1 -3735 -154 0
1 3750 -289 0
1 3750 169 0
1 3765 304 0
1 3765 274 0
1 -243 3676 0
1 243 3645 0
1 258 -3735 0
1 -273 -3661 0
1 -273 3570 0
1 273 -3735 0
1 -288 3631 0
1 -288 -273 0
1 288 -3570 0
1 -288 -287 0
1 3661 258 0
1 3661 -364 0
1 -3661 -3660 0
1 -3676 288 0
1 -3676 -229 0
1 3691 -3690 0
1 -3691 -3692 0
1 3691 214 0
1 3706 -258 0
1 -3706 -229 0
1 -3706 -243 0
1 -303 -3616 0
1 303 -3526 0
1 303 -3646 0
1 -303 3676 0
1 318 3526 0
1 -318 -3601 0
1 333 -332 0
1 333 -334 0
1 333 3571 0
1 333 -3541 0
1 348 3601 0
1 348 3676 0
1 -3601 -3602 0
1 -3616 -3617 0
1 -3616 -393 0
1 3616 -303 0
1 3616 -273 0
1 3616 -408 0
1 3616 348 0
1 -3616 318 0
1 3616 3615 0
1 -3631 303 0
1 3631 438 0
1 3631 409 0
1 3646 288 0
1 -3646 -273 0
1 3646 -409 0
1 3646 379 0
1 3646 -348 0
1 3646 318 0
1 -363 3556 0
1 -363 3466 0
1 -363 -3571 0
1 363 3511 0
1 378 -3586 0
1 393 3616 0
1 -393 3586 0
1 -393 3512 0
1 -393 394 0
1 393 3466 0
1 408 3527 0
1 -408 -3466 0
1 -408 -3497 0
1 -408 3571 0
1 408 -3541 0
1 408 -407 0
1 408 3512 0
1 -3541 -363 0
1 -3556 -3555 0
1 3556 -422 0
1 3556 498 0
1 3556 -437 0
1 -3556 -408 0
1 -3556 378 0
1 3571 333 0
1 -3571 378 0
1 -3586 438 0
1 422 -3527 0
1 -437 -3527 0
1 -437 -3436 0
1 -3482 -393 0
1 3497 3496 0
1 3497 408 0
1 3512 498 0
1 -3512 3511 0
1 3527 393 0
1 3527 558 0
1 -482 481 0
1 -482 -3361 0
1 482 -3332 0
1 482 -3482 0
1 497 3361 0
1 -497 -496 0
1 -497 -3376 0
1 -497 3482 0
1 512 3392 0
1 512 -3482 0
1 -527 512 0
1 527 3362 0
1 -527 -3452 0
1 527 -3422 0
1 3422 512 0
1 -3422 617 0
1 3422 587 0
1 -3422 -602 0
1 -3437 452 0
1 3437 587 0
1 -3437 557 0
1 -3452 -482 0
1 3452 452 0
1 -3452 3467 0
1 -3452 3453 0
1 3467 -482 0
1 3467 -602 0
1 3467 -573 0
1 557 3287 0
1 572 3362 0
1 -572 -3303 0
1 572 -3272 0
1 572 -3422 0
1 -587 -3392 0
1 587 3333 0
1 -3362 -631 0
1 3377 557 0
1 -3377 631 0
1 -3392 617 0
1 3392 557 0
1 3407 -647 0
1 3407 617 0
1 3407 3408 0
1 601 3362 0
1 601 -3377 0
1 601 3348 0
1 -601 -3287 0
1 616 3257 0
1 -631 -3377 0
1 631 632 0
1 -646 -645 0
1 646 3333 0
1 -646 3258 0
1 3303 706 0
1 -3303 -587 0
1 -3318 646 0
1 -3318 -691 0
1 3318 572 0
1 -3333 -722 0
1 3333 -692 0
1 3333 572 0
1 -3348 -707 0
1 3348 -587 0
1 3348 -662 0
1 3348 -601 0
1 -661 -3303 0
1 661 -3288 0
1 -661 -3197 0
1 -676 675 0
1 676 3303 0
1 676 3227 0
1 691 3168 0
1 -691 3303 0
1 -691 -3273 0
1 691 -3213 0
1 -691 692 0
1 706 -3168 0
1 706 -705 0
1 706 3273 0
1 -706 -3243 0
1 -706 -691 0
1 706 3228 0
1 3243 -736 0
1 3243 706 0
1 -3243 781 0
1 -3243 -766 0
1 -3258 -736 0
1 3258 -676 0
1 3258 -631 0
1 -3258 796 0
1 3273 -737 0
1 3273 676 0
1 3273 3274 0
1 3273 -767 0
1 -3288 3273 0
1 -3288 -752 0
1 -3288 -661 0
1 -721 736 0
1 -721 722 0
1 736 -3108 0
1 -736 721 0
1 -751 -750 0
1 751 3183 0
1 -751 3124 0
1 -766 -3183 0
1 -766 767 0
1 3183 -810 0
1 -3183 -3182 0
1 3183 -691 0
1 -3198 706 0
1 3198 810 0
1 -3198 -3197 0
1 -3198 3199 0
1 3213 -841 0
1 -3213 751 0
1 -3213 -796 0
1 -3228 -751 0
1 -3228 -856 0
1 -3228 -3227 0
1 3228 -3229 0
1 -780 3093 0
1 780 795 0
1 -780 -3198 0
1 795 3063 0
1 795 -3033 0
1 810 -3169 0
1 810 -3048 0
1 -810 3183 0
1 -810 -3198 0
1 3124 -3139 0
1 -3124 -870 0
1 3124 840 0
1 3139 885 0
1 3154 -901 0
1 -3154 886 0
1 3154 856 0
1 3154 825 0
1 -3169 -780 0
1 -3169 3154 0
1 -840 3048 0
1 840 3033 0
1 -840 3003 0
1 885 -870 0
1 885 3079 0
1 -885 3034 0
1 3079 810 0
1 -3079 855 0
1 -3094 3109 0
1 3109 -810 0
1 3109 885 0
1 900 3004 0
1 -915 -3034 0
1 930 3004 0
1 945 -3079 0
1 3004 -870 0
1 -3004 -3019 0
1 3004 -945 0
1 3019 870 0
1 -3034 -945 0
1 -3049 930 0
1 3049 -915 0
1 -244 3750 0
1 259 -3765 0
1 274 -289 0
1 274 3841 0
1 274 3750 0
1 -274 -273 0
1 274 3796 0
1 -289 3856 0
1 -289 274 0
1 289 3826 0
1 -3841 3842 0
1 3841 259 0
1 -3856 289 0
1 304 3720 0
1 304 303 0
1 -304 -3735 0
1 304 -3706 0
1 319 3720 0
1 319 304 0
1 334 3811 0
1 -334 3796 0
1 -349 3751 0
1 -349 334 0
1 349 -3706 0
1 3781 -3796 0
1 -3781 -439 0
1 3796 424 0
1 3796 364 0
1 -3796 -304 0
1 3796 -439 0
1 -3796 -349 0
1 -3811 -349 0
1 3826 -3811 0
1 3826 -304 0
1 -3826 3825 0
1 -364 3781 0
1 -364 3736 0
1 -364 -379 0
1 379 -3781 0
1 379 3736 0
1 -394 3781 0
1 -409 -3751 0
1 -3721 -3720 0
1 3721 468 0
1 -3721 -349 0
1 3736 394 0
1 -3736 -438 0
1 3736 -3735 0
1 -3736 379 0
1 -3751 -484 0
1 3751 3752 0
1 3751 -394 0
1 -3751 -409 0
1 -3751 379 0
1 -3766 454 0
1 3766 -394 0
1 -3766 -439 0
1 -423 -3677 0
1 -438 3586 0
1 -438 -3692 0
1 438 -3631 0
1 438 -439 0
1 -438 -3736 0
1 -438 3707 0
1 438 3677 0
1 438 -3646 0
1 453 454 0
1 -453 3721 0
1 453 468 0
1 453 -3707 0
1 -468 -3647 0
1 3662 -409 0
1 3677 -513 0
1 -3677 -483 0
1 -3677 453 0
1 -3677 -409 0
1 -3692 -544 0
1 3692 484 0
1 -3692 394 0
1 -3707 -559 0
1 -3707 438 0
1 -3707 -3708 0
1 483 -3617 0
1 483 -482 0
1 483 3602 0
1 -483 3647 0
1 498 -483 0
1 498 3527 0
1 498 -499 0
1 -498 3571 0
1 498 3512 0
1 -513 3662 0
1 513 -3677 0
1 -3602 588 0
1 -3602 498 0
1 -3602 603 0
1 -3602 573 0
1 3602 543 0
1 -3617 -3618 0
1 -3617 -453 0
1 -3617 -588 0
1 3617 -528 0
1 3617 -573 0
1 3632 528 0
1 -3632 -498 0
1 3632 3633 0
1 -3632 3647 0
1 3647 -589 0
1 3647 -559 0
1 543 3587 0
1 543 3497 0
1 558 -3497 0
1 573 574 0
1 573 -3542 0
1 -573 -3513 0
1 588 3617 0
1 588 589 0
1 -3542 -513 0
1 3542 -3543 0
1 3542 -678 0
1 -3542 647 0
1 3542 -588 0
1 3542 -543 0
1 3557 -3556 0
1 3557 -678 0
1 3557 -602 0
1 -3572 -3573 0
1 3572 -603 0
1 -3572 573 0
1 3587 -3586 0
1 3587 618 0
1 3587 -603 0
1 3587 543 0
1 617 3513 0
1 -632 -3557 0
1 -632 3468 0
1 632 -3438 0
1 632 -3542 0
1 -632 3453 0
1 647 3498 0
1 647 -632 0
1 647 -3423 0
1 3483 738 0
1 3483 -707 0
1 -3483 -617 0
1 -3483 3482 0
1 -3498 707 0
1 -3498 647 0
1 3498 -617 0
1 3498 -588 0
1 3513 632 0
1 3513 -602 0
1 -3528 -3527 0
1 -3528 -723 0
1 -662 3362 0
1 662 -3468 0
1 662 3348 0
1 662 -661 0
1 -677 -678 0
1 692 -3393 0
1 -692 3333 0
1 -692 3408 0
1 692 -3378 0
1 -692 -691 0
1 707 3393 0
1 707 -708 0
1 707 -3468 0
1 707 -3408 0
1 -707 3378 0
1 -707 3348 0
1 707 3483 0
1 -3423 -707 0
1 3423 -3438 0
1 -3423 632 0
1 -3423 -767 0
1 -3438 -737 0
1 3438 -662 0
1 3438 797 0
1 -3453 692 0
1 -3453 632 0
1 -3468 -707 0
1 -3468 677 0
1 3468 3469 0
1 -3468 -753 0
1 -722 -3393 0
1 -722 3363 0
1 722 -3408 0
1 -722 3378 0
1 -737 738 0
1 -737 -3273 0
1 737 -3378 0
1 -752 -3363 0
1 767 -3408 0
1 767 3378 0
1 3363 -737 0
1 3363 -707 0
1 -3363 842 0
1 -3363 3378 0
1 3363 -692 0
1 3378 -3377 0
1 3393 3392 0
1 -3393 -812 0
1 -3393 -692 0
1 -3408 -782 0
1 -3408 -752 0
1 -3408 3409 0
1 3408 -767 0
1 -781 -3304 0
1 -781 -3243 0
1 796 -3304 0
1 -796 -3349 0
1 796 3228 0
1 -796 797 0
1 811 3334 0
1 811 3304 0
1 -811 -3319 0
1 -826 3363 0
1 826 -3304 0
1 826 -3274 0
1 -826 -3244 0
1 3304 902 0
1 -3304 -841 0
1 -3304 917 0
1 3304 -3319 0
1 3319 841 0
1 -3319 3318 0
1 3319 -767 0
1 3334 -887 0
1 -3334 826 0
1 3334 -767 0
1 -3349 902 0
1 3349 3334 0
1 -3349 796 0
1 3349 767 0
1 841 3274 0
1 841 -3244 0
1 841 3154 0
1 -841 3259 0
1 856 -3274 0
1 -856 -3244 0
1 -856 3183 0
1 856 -3228 0
1 -871 -870 0
1 871 -3304 0
1 -871 -3289 0
1 886 -3169 0
1 886 -871 0
1 -886 -3304 0
1 886 -3154 0
1 -886 -3199 0
1 3244 901 0
1 3244 -3243 0
1 3274 -932 0
1 -3289 -871 0
1 -3289 -3274 0
1 3289 -886 0
1 -901 3169 0
1 -901 3139 0
1 901 3124 0
1 -901 3094 0
1 -901 3259 0
1 901 -3229 0
1 -916 -3169 0
1 -916 901 0
1 916 3229 0
1 -916 3199 0
1 931 932 0
1 931 -946 0
1 -931 3229 0
1 -946 931 0
1 946 3094 0
1 -3199 871 0
1 3214 931 0
1 -3214 901 0
1 3214 -3213 0
1 3229 -901 0
1 3229 871 0
1 424 -3751 0
1 424 3826 0
1 -424 -3796 0
1 439 -3826 0
1 469 -3812 0
1 -469 -3751 0
1 -3842 454 0
1 3842 -499 0
1 3857 -514 0
1 -3857 -3842 0
1 3857 454 0
1 3857 529 0
1 -3872 -424 0
1 3872 3887 0
1 3872 -3871 0
1 484 483 0
1 -484 3782 0
1 -484 499 0
1 -484 -3827 0
1 -484 -3736 0
1 499 -3751 0
1 499 3857 0
1 499 -3797 0
1 499 3766 0
1 499 3707 0
1 514 -3812 0
1 514 3782 0
1 529 514 0
1 529 -3812 0
1 -529 3782 0
1 529 -3767 0
1 3782 544 0
1 -3782 3781 0
1 -3782 -3783 0
1 -3782 -3797 0
1 -3797 -604 0
1 -3797 574 0
1 3812 3811 0
1 -3812 -619 0
1 -3812 -469 0
1 -3827 -3826 0
1 -3827 -3828 0
1 544 -3782 0
1 544 543 0
1 -544 -559 0
1 -544 3632 0
1 -544 -3707 0
1 -544 -3677 0
1 -559 -544 0
1 -559 3692 0
1 -559 3632 0
1 -559 -3797 0
1 574 3737 0
1 -574 3708 0
1 589 -3722 0
1 -589 588 0
1 -3722 -679 0
1 3722 -589 0
1 -3722 664 0
1 -3737 664 0
1 -3752 -559 0
1 3752 -604 0
1 -3752 574 0
1 -3767 664 0
1 -3767 -604 0
1 -603 -3602 0
1 -603 -3678 0
1 -618 -617 0
1 618 -3722 0
1 618 -619 0
1 618 3602 0
1 633 3587 0
1 633 -3722 0
1 633 -3693 0
1 633 3633 0
1 633 3572 0
1 -633 -634 0
1 -648 -3587 0
1 -648 649 0
1 3663 -724 0
1 -3663 693 0
1 -3663 -603 0
1 -3678 739 0
1 3678 708 0
1 3678 618 0
1 3678 3663 0
1 -3678 603 0
1 -3678 3677 0
1 3693 -709 0
1 -3693 -618 0
1 3693 3694 0
1 -3693 694 0
1 -3693 -664 0
1 -3693 -633 0
1 -3693 574 0
1 3708 739 0
1 3708 -648 0
1 3708 574 0
1 -663 3603 0
1 -678 -3587 0
1 -678 3663 0
1 -678 3513 0
1 693 -3573 0
1 -708 -3648 0
1 -708 -709 0
1 -3618 708 0
1 -3618 3603 0
1 -3633 -3648 0
1 3633 739 0
1 3633 -633 0
1 -3648 633 0
1 -723 -3468 0
1 -723 -724 0
1 -723 3573 0
1 753 3588 0
1 753 -3468 0
1 753 -752 0
1 -753 -754 0
1 753 3484 0
1 -753 3453 0
1 768 3588 0
1 -768 3529 0
1 -768 3468 0
1 -768 -753 0
1 768 3603 0
1 -768 -767 0
1 3543 -3558 0
1 -3543 -812 0
1 3558 -708 0
1 -3558 858 0
1 -3573 723 0
1 3573 858 0
1 3588 -768 0
1 -782 3468 0
1 -782 783 0
1 782 3453 0
1 797 -3468 0
1 -797 796 0
1 812 -3529 0
1 812 -3499 0
1 -812 3543 0
1 827 -3469 0
1 -827 -3514 0
1 827 826 0
1 3484 842 0
1 3484 -918 0
1 -3484 -827 0
1 -3499 -768 0
1 -3499 -842 0
1 3499 -887 0
1 -3499 -797 0
1 -3514 -3529 0
1 3514 843 0
1 3514 782 0
1 3514 -918 0
1 3529 -918 0
1 -842 3363 0
1 842 3469 0
1 842 -3408 0
1 842 3484 0
1 872 3334 0
1 887 -3499 0
1 -887 -3439 0
1 887 3484 0
1 -887 -3454 0
1 3424 -932 0
1 -3424 812 0
1 -3424 -887 0
1 3424 857 0
1 3424 -3423 0
1 3439 857 0
1 3454 933 0
1 3454 842 0
1 3454 -948 0
1 3469 3468 0
1 3469 -857 0
1 902 -3394 0
1 902 3334 0
1 -902 3409 0
1 902 -3349 0
1 917 3424 0
1 -917 -918 0
1 917 -3319 0
1 -932 -931 0
1 -932 -3409 0
1 -947 -3424 0
1 3364 -902 0
1 3364 -947 0
1 3364 3379 0
1 -3379 -3378 0
1 3379 -947 0
1 3394 932 0
1 3394 -3409 0
1 3394 -887 0
1 3409 917 0
1 -604 3873 0
1 -604 3812 0
1 604 3858 0
1 -619 -3812 0
1 -619 -3888 0
1 619 3797 0
1 -619 604 0
1 -634 -3873 0
1 -634 3828 0
1 634 633 0
1 649 3873 0
1 649 -3843 0
1 3843 -694 0
1 3858 -664 0
1 3873 -3872 0
1 3873 3888 0
1 3873 -634 0
1 3873 604 0
1 664 -679 0
1 664 -3752 0
1 -664 3737 0
1 664 3798 0
1 -664 -3708 0
1 -679 -3843 0
1 679 -3813 0
1 -679 678 0
1 679 -3693 0
1 -694 3783 0
1 -694 -3693 0
1 694 3858 0
1 694 -3768 0
1 -694 3708 0
1 709 -3738 0
1 -709 -3708 0
1 3783 769 0
1 3783 784 0
1 3783 724 0
1 3783 -3798 0
1 -3798 -709 0
1 -3798 -3783 0
1 -3798 664 0
1 3813 3812 0
1 -3813 -679 0
1 3813 3814 0
1 -3813 -694 0
1 -3813 664 0
1 -3813 -634 0
1 -3828 -3827 0
1 3828 3829 0
1 -3828 799 0
1 724 -3783 0
1 -739 738 0
1 739 -3783 0
1 739 3693 0
1 754 -3753 0
1 -754 3664 0
1 754 -753 0
1 769 754 0
1 3723 -769 0
1 3723 783 0
1 3738 -724 0
1 -3753 3752 0
1 -3753 -814 0
1 3753 724 0
1 3753 -694 0
1 3753 799 0
1 3768 -724 0
1 -3768 -694 0
1 -3768 -3769 0
1 -783 3648 0
1 783 -3588 0
1 -783 3633 0
1 -783 3738 0
1 -798 -3679 0
1 -798 -797 0
1 813 814 0
1 813 -3664 0
1 -813 3738 0
1 813 828 0
1 -828 813 0
1 828 3604 0
1 -828 -827 0
1 -3664 -904 0
1 -3664 813 0
1 -3664 888 0
1 -3664 -3679 0
1 3679 -769 0
1 -3679 -843 0
1 -3679 754 0
1 3694 -844 0
1 -3694 -859 0
1 843 -844 0
1 843 -3664 0
1 843 -3543 0
1 -858 -3649 0
1 -858 3558 0
1 -858 3529 0
1 873 -3664 0
1 -873 -3514 0
1 -888 3559 0
1 -888 3664 0
1 -888 -3604 0
1 888 889 0
1 3604 -3619 0
1 -3604 -873 0
1 3604 -843 0
1 -3619 3618 0
1 3619 843 0
1 3619 -828 0
1 3649 873 0
1 -3649 -813 0
1 -903 -3619 0
1 -903 3559 0
1 903 3544 0
1 -903 3454 0
1 918 -903 0
1 918 -3604 0
1 -918 917 0
1 918 919 0
1 933 3469 0
1 -933 948 0
1 948 3559 0
1 948 3604 0
1 948 3544 0
1 3544 918 0
1 -3559 933 0
1 3559 -3558 0
1 3559 -948 0
1 3559 888 0
1 3574 873 0
1 3589 -903 0
1 -3589 918 0
1 -784 3889 0
1 799 -3874 0
1 799 -3828 0
1 -814 3844 0
1 -814 3889 0
1 814 3859 0
1 -829 3844 0
1 829 -3799 0
1 829 -3768 0
1 3844 -814 0
1 3844 -784 0
1 -3859 844 0
1 3859 784 0
1 -3859 3858 0
1 3859 -889 0
1 3874 784 0
1 3874 3889 0
1 -859 3844 0
1 859 -844 0
1 -859 -3694 0
1 859 -858 0
1 874 -3784 0
1 874 3829 0
1 874 -3739 0
1 889 -3844 0
1 889 -3799 0
1 889 3769 0
1 889 -3739 0
1 -3784 874 0
1 3784 -844 0
1 3799 -934 0
1 -3799 874 0
1 -3799 829 0
1 -3814 -859 0
1 -3829 -874 0
1 -3829 -814 0
1 3829 -889 0
1 904 3724 0
1 904 3679 0
1 919 -3724 0
1 -934 3754 0
1 934 -3799 0
1 934 -3739 0
1 3724 -3723 0
1 -3754 -874 0
1 3754 -919 0
1 3769 874 0
